; benchmark generated from python API
(set-info :status unknown)
(declare-fun W_S1_V1 () Bool)
(declare-fun W_S1_V4 () Bool)
(declare-fun W_S1_V5 () Bool)
(declare-fun W_S1_V2 () Bool)
(assert
 (let (($x1664 (forall ((V2_0 Int) )(forall ((V5_0 Int) )(forall ((V4_0 Int) )(forall ((S1_V4_!75 Int) )(forall ((S1_V4_!79 Int) )(forall ((S1_V1_!73 Int) )(forall ((S1_V1_!77 Int) )(forall ((S1_V2_!72 Int) )(forall ((S1_V2_!76 Int) )(forall ((S1_V5_!74 Int) )(forall ((S1_V5_!78 Int) )(let (($x2160 (and (= (ite W_S1_V2 S1_V2_!72 V2_0) (ite W_S1_V2 S1_V2_!76 V2_0)) (= (ite W_S1_V1 S1_V1_!73 0) (+ (- 1) (ite W_S1_V2 S1_V2_!76 V2_0))) (= (ite W_S1_V5 S1_V5_!74 V5_0) (ite W_S1_V5 S1_V5_!78 V5_0)) (= (ite W_S1_V4 S1_V4_!75 V4_0) (ite W_S1_V4 S1_V4_!79 V4_0)))))
 (let ((?x3904 (ite W_S1_V1 S1_V1_!73 0)))
 (let (($x5958 (and (not (<= V2_0 0)) (>= ?x3904 (+ (- 1) (ite W_S1_V2 S1_V2_!72 V2_0))) (>= V2_0 1) (not (<= 2 V2_0)) (not (<= (ite W_S1_V2 S1_V2_!76 V2_0) 0)))))
 (let (($x1314 (not (and (= S1_V4_!79 S1_V4_!75) (= S1_V1_!77 S1_V1_!73) (= S1_V2_!76 S1_V2_!72) (= S1_V5_!78 S1_V5_!74)))))
 (or $x1314 (not $x5958) $x2160))))))
 )
 )
 )
 )
 )
 )
 )
 )
 )
 )
 ))
 (and $x1664 W_S1_V1)))
(check-sat)
